100
32
13
23
27
14
6
6
27
12
16
8
25
32
26
25
12
8
9
19
2
2
3
2
1
2
18
3
3
6
5
5
1
1
5
4
1
19
1
3
1
2
1
1
1
1
1
2
17
4
17
4
1
1
1
1
17
2
1
1
1
2
17
26
18
4
1
3
5
7
2
2
1
1
3
2
3
2
1
3
1
3
1
2
2
1
2
1
2
1
2
1
1
1
1
1
1
2
17
1
5
1